c read Graph
c width = 257
c time = 154 ms
c width = 22
c time = 343 ms
c width = 20
c time = 592 ms
c width = 19
c time = 1857 ms
c width = 18
c time = 3236 ms
c width = 18
c time = 5020 ms
s td 224 19 270
b 1 1 2 19
b 2 2 3 19 20
b 3 16 17 35 36
b 4 3 19 20 37
b 5 16 35 36 54
b 6 217 235 236 254
b 7 234 251 252 269
b 8 217 236 254 255
b 9 234 251 268 269
b 10 3 4 5 22
b 11 3 5 21 22 38 55
b 12 5 21 22 38 40 55 57
b 13 5 22 38 40 55 57 74
b 14 5 22 40 55 57 74 91
b 15 5 22 24 40 41 57 74 91
b 16 5 24 40 41 57 59 74 76 91
b 17 5 24 41 57 59 74 76 91 93
b 18 5 24 41 59 74 76 91 93 110
b 19 5 24 41 43 59 60 76 91 93 110
b 20 5 24 43 59 60 76 79 91 93 97 110 112 114 131
b 21 5 24 43 60 62 79 91 93 97 110 112 114 131
b 22 5 24 43 62 79 91 93 97 110 112 114 131 148 163 165 182
b 23 91 93 110 112 129 131 148 163 165 182
b 24 91 110 129 146 148 163 165 182
b 25 146 163 164 165 182
b 26 129 146 147 148 165
b 27 91 110 127 129 146 163
b 28 91 109 110 127
b 29 127 145 146 163
b 30 110 127 128 129 146
b 31 93 110 111 112 129
b 32 112 129 130 131 148
b 33 5 9 24 28 43 45 62 79 97 114 131 148 163 165 182
b 34 5 9 24 26 28 43 45 62
b 35 9 26 27 28 45
b 36 26 43 44 45 62
b 37 5 7 9 24 26 43
b 38 7 24 25 26 43
b 39 7 8 9 26
b 40 5 6 7 24
b 41 9 28 45 62 79 97 114 131 148 150 163 165 169 182 188 205 224 243 262
b 42 9 28 45 62 79 97 114 131 133 150 169 188 205 224 243 262
b 43 114 131 132 133 150
b 44 9 28 45 62 79 97 114 116 133 150 169 188 205 224 243 262
b 45 97 114 115 116 133
b 46 9 28 45 62 64 79 83 97 100 116 117 133 150 169 188 205 224 243 262
b 47 45 62 64 79 81 83 97 100 116 117
b 48 62 79 81 97 98 100 116 117
b 49 62 79 80 81 98
b 50 81 98 99 100 117
b 51 64 81 82 83 100
b 52 45 62 63 64 81
b 53 9 28 45 64 83 100 116 117 133 136 150 154 169 171 188 205 224 243 262
b 54 116 117 133 136 150 154 169 171 188 205 224 243 262
b 55 116 117 133 136 150 152 154 169 171 188
b 56 133 150 151 152 169
b 57 152 169 170 171 188
b 58 116 117 133 135 136 152 154 171
b 59 116 133 134 135 152
b 60 135 152 153 154 171
b 61 9 28 45 64 83 100 117 119 136 154 171 188 205 224 243 262
b 62 100 117 118 119 136
b 63 9 28 45 64 83 100 102 119 136 154 171 188 205 224 243 262
b 64 9 28 45 47 64 83 102 119 136 154 171 188 205 224 243 262
b 65 28 45 46 47 64
b 66 9 28 47 64 66 83 102 119 136 154 171 188 205 224 243 262
b 67 47 64 65 66 83
b 68 83 100 101 102 119
b 69 131 148 150 163 165 169 182 184 188 203 205 222 224 243 262
b 70 163 165 182 184 203 205 222 224 239 243 258 262
b 71 163 165 182 184 203 220 222 239 258
b 72 203 220 221 222 239
b 73 163 165 182 184 201 203 220 239 258
b 74 163 182 201 220 239 256 258
b 75 239 256 257 258
b 76 163 182 199 201 220 239 256
b 77 163 181 182 199
b 78 182 199 201 220 237 239 256
b 79 182 199 201 218 220 237 256
b 80 199 218 237 255 256
b 81 199 217 218 237 255
b 82 217 218 236 237 255
b 83 201 218 219 220 237
b 84 182 199 200 201 218
b 85 220 237 238 239 256
b 86 165 182 183 184 201
b 87 184 201 202 203 220
b 88 205 222 224 239 241 243 258 262
b 89 222 239 240 241 258
b 90 205 222 223 224 241
b 91 224 241 243 258 260 262
b 92 241 258 259 260
b 93 224 241 242 243 260
b 94 243 260 261 262
b 95 131 148 150 165 169 184 186 188 203 205 222
b 96 169 186 187 188 205
b 97 131 148 150 165 167 169 184 186 203
b 98 131 148 149 150 167
b 99 150 167 168 169 186
b 100 167 184 185 186 203
b 101 148 165 166 167 184
b 102 186 203 204 205 222
b 103 43 60 61 62 79
b 104 59 60 76 79 93 95 97 112 114 131
b 105 95 112 113 114 131
b 106 59 60 76 78 79 95 97 114
b 107 78 95 96 97 114
b 108 59 76 77 78 95
b 109 76 93 94 95 112
b 110 24 41 42 43 60
b 111 74 91 92 93 110
b 112 57 74 75 76 93
b 113 40 57 58 59 76
b 114 5 22 23 24 41
b 115 55 73 74 91
b 116 38 55 56 57 74
b 117 21 38 39 40 57
b 118 3 21 37 38 55
b 119 3 20 21 37 38
b 120 9 28 47 66 83 84 102 119 136 154 171 188 205 224 243 262
b 121 9 28 47 66 84 85 102 119 136 154 171 188 205 224 243 262
b 122 9 28 47 66 85 102 119 136 154 171 173 188 192 205 209 224 226 243 262
b 123 9 28 47 66 85 102 119 121 136 140 154 157 173 174 192 209 226 243 262
b 124 9 28 47 66 85 102 104 121 136 140 154 157 173 174 192 209 226 243 262
b 125 9 28 47 66 85 104 121 123 136 140 154 157 173 174 192 209 226 243 262
b 126 9 28 47 66 85 104 123 140 142 157 161 173 174 180 192 209 226 243 262
b 127 123 140 142 157 159 161 173 174 180 192 209 226 243 262
b 128 140 142 157 159 161 173 174 178 180 192 193 195 209 212 226 243 262
b 129 161 173 174 178 180 192 193 195 209 212 226 230 243 247 262 266
b 130 9 28 47 66 85 104 108 123 125 142 161 180
b 131 108 125 142 144 161 180
b 132 144 161 162 180
b 133 108 125 126 144
b 134 125 142 143 144 161
b 135 9 28 47 66 85 104 106 108 123 125 142
b 136 106 123 124 125 142
b 137 9 28 47 66 85 89 104 106 108 123 125
b 138 89 106 107 108 125
b 139 9 28 47 66 85 87 89 104 106 108 123
b 140 87 104 105 106 123
b 141 9 28 47 66 68 85 87 89 104 106 108
b 142 9 28 47 49 66 68 85 87 89 106 108
b 143 49 66 67 68 85
b 144 9 13 28 32 47 49 66 68 87 89 106 108
b 145 13 32 49 68 70 87 89 106 108
b 146 70 87 88 89 106
b 147 13 32 49 51 68 70 87 89 108
b 148 32 49 50 51 68
b 149 51 68 69 70 87
b 150 13 32 51 70 72 89 108
b 151 72 89 90 108
b 152 13 15 32 51 70 72 89
b 153 13 14 15 32
b 154 15 32 51 53 70 72 89
b 155 53 70 71 72 89
b 156 15 32 34 51 53 70 72
b 157 15 32 33 34 51
b 158 15 34 53 54 72
b 159 15 16 34 53 54
b 160 16 34 35 53 54
b 161 34 51 52 53 70
b 162 9 13 28 30 32 47 49 66
b 163 30 47 48 49 66
b 164 9 11 13 28 30 47
b 165 9 10 11 28
b 166 11 28 29 30 47
b 167 11 12 13 30
b 168 13 30 31 32 49
b 169 68 85 86 87 104
b 170 85 102 103 104 121
b 171 102 119 121 136 138 140 154 157 173 174
b 172 102 119 120 121 138
b 173 121 138 139 140 157
b 174 119 136 138 154 155 157 173 174
b 175 138 155 156 157 174
b 176 119 136 137 138 155
b 177 104 121 122 123 140
b 178 123 140 141 142 159
b 179 142 159 160 161 178
b 180 161 178 180 195 197 212 230 247 266
b 181 161 178 179 180 197
b 182 178 180 195 197 212 214 230 247 266
b 183 178 195 196 197 214
b 184 180 195 197 212 214 230 231 247 266
b 185 195 212 213 214 231
b 186 180 197 214 230 231 247 249 266
b 187 180 197 214 216 231 249 266
b 188 180 197 198 216
b 189 197 214 216 231 233 249 266
b 190 197 214 215 216 233
b 191 214 216 231 233 249 250 266
b 192 216 233 249 250 266 268
b 193 216 233 234 250 268
b 194 233 234 250 251 268
b 195 249 266 267 268
b 196 214 231 232 233 250
b 197 230 247 248 249 266
b 198 140 157 159 174 176 178 193 195 212
b 199 157 174 175 176 193
b 200 159 176 177 178 195
b 201 140 157 158 159 176
b 202 176 193 194 195 212
b 203 154 171 173 188 190 192 205 209 224 226 243
b 204 173 190 191 192 209
b 205 171 188 190 205 207 209 224 226 243
b 206 190 207 208 209 226
b 207 207 224 225 226 243
b 208 188 205 206 207 224
b 209 171 188 189 190 207
b 210 154 171 172 173 190
b 211 192 193 209 212 226 228 230 243 247 262 266
b 212 209 226 228 243 245 247 262 266
b 213 228 245 247 262 264 266
b 214 245 262 263 264
b 215 247 264 265 266
b 216 228 245 246 247 264
b 217 226 243 244 245 262
b 218 209 226 227 228 245
b 219 192 193 209 211 212 228 230 247
b 220 211 228 229 230 247
b 221 192 209 210 211 228
b 222 252 269 270
b 223 235 253 254
b 224 17 18 36
1 2
2 4
3 224
3 5
4 119
5 160
6 223
6 8
7 222
7 9
8 82
9 194
10 11
11 118
11 12
12 117
12 13
13 116
13 14
14 115
14 15
15 114
15 16
16 113
16 17
17 112
17 18
18 111
18 19
19 110
19 20
20 104
20 21
21 103
21 22
22 33
22 23
23 31
23 32
23 24
24 25
24 26
24 27
27 28
27 29
27 30
33 41
33 34
34 35
34 36
34 37
37 40
37 39
37 38
41 69
41 42
42 44
42 43
44 46
44 45
46 53
46 47
47 48
47 51
47 52
48 49
48 50
53 61
53 55
53 54
55 56
55 57
55 58
58 59
58 60
61 63
61 62
63 68
63 64
64 66
64 65
66 120
66 67
69 70
69 95
70 88
70 71
71 72
71 73
73 86
73 87
73 74
74 75
74 76
76 77
76 78
78 85
78 79
79 80
79 84
79 83
80 81
81 82
88 89
88 90
88 91
91 92
91 94
91 93
95 97
95 102
95 96
97 101
97 98
97 100
97 99
104 109
104 105
104 106
106 108
106 107
118 119
120 121
121 122
122 203
122 123
123 171
123 124
124 170
124 125
125 177
125 126
126 130
126 127
127 178
127 128
128 179
128 198
128 129
129 180
129 211
130 135
130 131
131 134
131 133
131 132
135 136
135 137
137 139
137 138
139 140
139 141
141 142
141 169
142 143
142 144
144 145
144 162
145 146
145 147
147 148
147 149
147 150
150 151
150 152
152 153
152 154
154 155
154 156
156 158
156 157
156 161
158 159
159 160
162 163
162 164
162 168
164 165
164 167
164 166
171 173
171 174
171 172
174 175
174 176
180 181
180 182
182 183
182 184
184 185
184 186
186 197
186 187
187 188
187 189
189 190
189 191
191 196
191 192
192 193
192 195
193 194
198 201
198 202
198 199
198 200
203 210
203 204
203 205
205 208
205 209
205 207
205 206
211 212
211 219
212 217
212 218
212 213
213 214
213 215
213 216
219 221
219 220
